n_res = 6;
rcap = [14, 13, 15, 15, 75, 65];
rtype = [1, 1, 1, 1, 2, 2];
n_tasks = 16;
modes = [ {1, 2, 3}, {4, 5, 6}, {7, 8, 9}, {10, 11, 12}, {13, 14, 15}, {16, 17, 18}, {19, 20, 21}, {22, 23, 24}, {25, 26, 27}, {28, 29, 30}, {31, 32, 33}, {34, 35, 36}, {37, 38, 39}, {40, 41, 42}, {43, 44, 45}, {46, 47, 48} ];
succ = [ {6, 7, 9}, {4, 5, 8}, {12, 14}, {9, 11, 12}, {7, 10}, {10, 13}, {11, 16}, {9, 12, 14}, {13, 15}, {11}, {14, 15}, {16}, {16}, {}, {}, {} ];
n_opt = 48;
dur = [4, 7, 9, 3, 6, 10, 1, 6, 8, 1, 5, 5, 1, 3, 7, 1, 8, 8, 2, 4, 8, 2, 7, 7, 1, 2, 3, 2, 4, 6, 3, 3, 8, 4, 4, 5, 1, 5, 8, 3, 7, 8, 3, 6, 10, 2, 9, 9];
rreq = [|  9,  9,  8,  2,  2,  1,  8,  8,  7,  2,  2,  1,  8,  7,  6,  5,  5,  4,  1,  1,  1,  9,  8,  6,  7,  7,  7,  4,  4,  3, 10,  9,  9,  9,  9,  9,  6,  5,  3,  3,  3,  3,  8,  8,  5,  7,  7,  6
        |  5,  4,  3,  6,  4,  4,  4,  3,  3,  6,  6,  5,  8,  6,  4,  9,  7,  7,  6,  6,  5, 10,  8,  9,  7,  4,  3,  6,  5,  3,  9,  9,  6,  7,  6,  5,  4,  4,  2,  4,  4,  4,  8,  7,  3,  7,  5,  7
        |  5,  4,  3,  7,  6,  6,  7,  7,  7,  9,  7,  5,  8,  4,  3,  6,  6,  5, 10,  9,  8,  8,  6,  5,  9,  9,  9,  8,  7,  5,  8,  7,  2,  7,  6,  3,  7,  7,  7,  9,  9,  9,  9,  5,  5,  6,  4,  2
        |  7,  5,  5,  7,  7,  4,  3,  2,  1,  7,  5,  6, 10,  7,  7,  4,  2,  1,  9,  8,  5,  6,  4,  4,  7,  5,  4,  4,  2,  1,  3,  3,  2, 10, 10, 10,  8,  7,  6,  5,  3,  1,  4,  2,  2,  5,  2,  2
        |  6,  5,  3,  7,  6,  5,  3,  3,  2,  8,  7,  8,  8,  8,  7,  9,  4,  6, 10,  5,  3,  2,  2,  2,  7,  6,  2, 10,  7,  4,  9, 10,  4,  6,  7,  5,  5,  4,  2,  9,  9,  9,  4,  2,  1,  7,  6,  3
        |  6,  4,  2,  3,  2,  1,  6,  6,  5,  7,  5,  5,  8,  6,  5,  3,  1,  2,  2,  2,  1,  5,  4,  2,  6,  5,  4, 10,  9,  9,  3,  3,  2,  2,  2,  1,  6,  6,  5,  1,  1,  1,  9,  9,  9,  7,  7,  6 |];
